#######################################
### Exact MIP solver for the HHCRSP ###
#######################################
-- Instance file: new-instances/HHCRSP_100_20_40_1.0_R_C.txt
-- Max threads: 4
-- Time limit: 999999 seconds
-- Use initial solution: No
Trivial flow violations prevented generating 43143 variables.
Model exported.
Version identifier: 20.1.0.0 | 2020-11-10 | 9bedb6d68
CPXPARAM_Threads                                 4
CPXPARAM_TimeLimit                               999999
Parallel mode: deterministic, using up to 4 threads for concurrent optimization:
 * Starting dual Simplex on 1 thread...
 * Starting Barrier on 3 threads...
Tried aggregator 1 time.
LP Presolve eliminated 6384 rows and 1939 columns.
Reduced LP has 71570 rows, 68545 columns, and 862416 nonzeros.
Presolve time = 0.82 sec. (219.58 ticks)
Symmetry aggregator did 107266 additional substitutions.

Iteration log . . .
Iteration:     1   Dual objective     =             0.000000

Dual crossover.
  Dual:  Fixing 272 variables.
      271 DMoves:  Infeasibility  3.45889984e-13  Objective  1.18000000e+02
        0 DMoves:  Infeasibility  2.15105712e-13  Objective  1.18000000e+02
  Dual:  Pushed 6, exchanged 266.
  Primal:  Fixing 253 variables.
      252 PMoves:  Infeasibility  4.49640325e-15  Objective  1.18000000e+02
        0 PMoves:  Infeasibility  5.05151476e-15  Objective  1.18000000e+02
  Primal:  Pushed 203, exchanged 50.

Dual simplex solved model.


Solution status from MIP model:
-- Processing time: 1.187 sec.
-- Memory used: 129.182 MB
-- Best bound: inf
-- Obj value: 118
-- Gap: inf%
-- Total distance: 354
-- Total tardiness: 0
-- Largest tardiness: 0
